NAME : single
TYPE : ATSP
DIMENSION : 7
EDGE_WEIGHT_TYPE : EXPLICIT
EDGE_WEIGHT_FORMAT : FULL_MATRIX
EDGE_WEIGHT_SECTION
0 50333 50316 50180 50180 629 189 
0 0 192 331 370 50000 50000 
0 192 0 330 355 50000 50000 
0 331 330 0 77 50000 50000 
0 370 355 77 0 50000 50000 
0 50000 50000 50000 50000 0 289 
0 50000 50000 50000 50000 289 0 
EOF